
numberOfDrones = 2; % Number of drones
numberOfRechargePoints = 1; % Number of recharge points
numberOfUsersClusters = 4; % Number of users
M1 = 100000; % Large enough value
XY = 7;

% Data
 Ri = [1, 1]; % Coverage radius of drones
Bi = [20, 20]; % Battery capacity of drones
Ci = [2, 2]; % Consumption per unit distance of drones
 NUsers = [4, 6, 3, 2]; % Number of users in clusters
UserClusterPosition = [| 2, 2
       | 3, 3
       | 5, 1
       | 6, 1 |]; % Position of user clusters

